53
100
80	1
78	2
77	1
76	3
75	2
74	2
73	2
72	2
71	2
70	1
69	1
68	1
66	1
65	1
62	3
61	3
59	2
58	1
56	2
55	1
54	3
53	3
52	2
51	1
48	1
47	3
46	1
45	1
44	2
43	3
42	3
40	2
39	1
38	2
37	3
35	2
33	2
32	2
31	1
27	2
25	1
24	2
23	2
22	2
20	4
19	1
18	3
17	1
16	3
15	1
12	3
11	2
10	1
